14° run output:
{
    "Function": "kroB1000.tsp",
    "Problem dimension": [
        826,
        344,
        501,
        944,
        145,
        226,
        355,
        368,
        636,
        618,
        7,
        607,
        192,
        943,
        779,
        728,
        721,
        863,
        619,
        821,
        401,
        350,
        188,
        201,
        62,
        897,
        240,
        926,
        208,
        934,
        693,
        857,
        572,
        228,
        117,
        641,
        452,
        741,
        541,
        36,
        392,
        93,
        195,
        667,
        224,
        937,
        292,
        473,
        888,
        906,
        389,
        227,
        5,
        970,
        462,
        318,
        530,
        519,
        643,
        252,
        807,
        629,
        470,
        951,
        858,
        444,
        400,
        565,
        356,
        264,
        506,
        426,
        369,
        121,
        282,
        135,
        869,
        558,
        469,
        825,
        930,
        816,
        187,
        31,
        75,
        639,
        325,
        925,
        425,
        397,
        948,
        436,
        939,
        191,
        82,
        535,
        598,
        585,
        793,
        99,
        231,
        749,
        295,
        94,
        0,
        527,
        80,
        803,
        77,
        752,
        298,
        982,
        574,
        543,
        329,
        212,
        12,
        792,
        954,
        220,
        985,
        927,
        314,
        177,
        22,
        914,
        346,
        173,
        102,
        366,
        238,
        47,
        199,
        505,
        662,
        659,
        889,
        474,
        603,
        429,
        381,
        150,
        742,
        818,
        632,
        178,
        258,
        727,
        378,
        2,
        853,
        165,
        59,
        134,
        125,
        169,
        499,
        33,
        871,
        685,
        774,
        234,
        42,
        861,
        922,
        649,
        971,
        980,
        722,
        87,
        185,
        514,
        705,
        131,
        704,
        744,
        458,
        409,
        909,
        900,
        380,
        413,
        571,
        884,
        296,
        968,
        796,
        308,
        804,
        112,
        921,
        354,
        20,
        600,
        650,
        867,
        540,
        839,
        973,
        840,
        72,
        278,
        443,
        767,
        533,
        406,
        615,
        394,
        213,
        210,
        242,
        70,
        864,
        85,
        932,
        567,
        353,
        717,
        305,
        661,
        385,
        648,
        868,
        507,
        622,
        260,
        697,
        272,
        127,
        43,
        57,
        143,
        681,
        25,
        13,
        407,
        97,
        183,
        817,
        811,
        255,
        451,
        492,
        660,
        476,
        657,
        193,
        671,
        48,
        536,
        118,
        467,
        642,
        518,
        737,
        197,
        110,
        873,
        952,
        556,
        332,
        720,
        377,
        466,
        334,
        449,
        651,
        879,
        882,
        256,
        617,
        870,
        891,
        115,
        146,
        908,
        844,
        10,
        595,
        730,
        91,
        707,
        521,
        851,
        756,
        910,
        487,
        241,
        854,
        233,
        167,
        493,
        49,
        271,
        977,
        831,
        152,
        820,
        628,
        856,
        480,
        281,
        912,
        17,
        321,
        302,
        73,
        898,
        364,
        945,
        107,
        402,
        688,
        987,
        553,
        847,
        995,
        962,
        215,
        428,
        753,
        933,
        769,
        317,
        955,
        881,
        559,
        503,
        785,
        894,
        781,
        892,
        250,
        163,
        279,
        40,
        63,
        338,
        920,
        420,
        777,
        638,
        176,
        148,
        763,
        315,
        551,
        902,
        691,
        532,
        725,
        23,
        510,
        403,
        790,
        357,
        513,
        434,
        729,
        562,
        483,
        206,
        433,
        570,
        88,
        58,
        778,
        39,
        775,
        621,
        958,
        291,
        885,
        780,
        370,
        50,
        174,
        723,
        672,
        304,
        151,
        534,
        531,
        35,
        196,
        538,
        824,
        244,
        616,
        44,
        969,
        846,
        800,
        596,
        845,
        416,
        808,
        322,
        447,
        335,
        352,
        28,
        719,
        180,
        230,
        609,
        424,
        489,
        371,
        990,
        459,
        414,
        21,
        838,
        488,
        529,
        153,
        51,
        887,
        610,
        235,
        60,
        823,
        379,
        98,
        6,
        217,
        829,
        842,
        528,
        172,
        652,
        116,
        545,
        405,
        363,
        106,
        161,
        478,
        827,
        14,
        907,
        627,
        743,
        771,
        453,
        706,
        928,
        430,
        273,
        468,
        812,
        734,
        136,
        504,
        605,
        53,
        953,
        327,
        554,
        964,
        445,
        542,
        830,
        122,
        604,
        669,
        27,
        718,
        834,
        170,
        795,
        387,
        96,
        484,
        86,
        437,
        872,
        34,
        189,
        84,
        319,
        248,
        877,
        336,
        129,
        310,
        828,
        806,
        520,
        579,
        285,
        157,
        784,
        956,
        680,
        166,
        312,
        221,
        836,
        653,
        54,
        263,
        620,
        587,
        120,
        270,
        24,
        974,
        333,
        168,
        590,
        624,
        395,
        658,
        699,
        993,
        265,
        893,
        576,
        81,
        155,
        137,
        670,
        494,
        822,
        901,
        277,
        843,
        686,
        471,
        802,
        89,
        644,
        301,
        586,
        16,
        841,
        330,
        266,
        182,
        758,
        905,
        78,
        732,
        716,
        4,
        502,
        340,
        760,
        862,
        602,
        966,
        415,
        198,
        886,
        776,
        612,
        522,
        482,
        294,
        764,
        746,
        149,
        132,
        46,
        417,
        200,
        523,
        259,
        941,
        297,
        637,
        274,
        584,
        156,
        747,
        695,
        561,
        601,
        421,
        992,
        788,
        552,
        383,
        903,
        591,
        349,
        577,
        328,
        783,
        114,
        568,
        485,
        515,
        203,
        635,
        359,
        546,
        960,
        537,
        924,
        365,
        323,
        109,
        517,
        412,
        623,
        372,
        464,
        768,
        630,
        289,
        1,
        713,
        919,
        786,
        580,
        597,
        202,
        435,
        633,
        923,
        949,
        204,
        739,
        307,
        190,
        275,
        299,
        512,
        41,
        762,
        393,
        209,
        123,
        229,
        689,
        300,
        448,
        442,
        859,
        963,
        805,
        918,
        852,
        544,
        432,
        588,
        675,
        917,
        866,
        497,
        755,
        663,
        984,
        243,
        15,
        625,
        819,
        666,
        677,
        947,
        692,
        810,
        684,
        967,
        687,
        348,
        171,
        461,
        946,
        181,
        560,
        456,
        83,
        936,
        133,
        942,
        563,
        253,
        646,
        175,
        269,
        410,
        3,
        875,
        798,
        472,
        735,
        418,
        700,
        773,
        30,
        626,
        701,
        913,
        655,
        261,
        874,
        495,
        965,
        754,
        703,
        408,
        11,
        268,
        750,
        479,
        748,
        423,
        508,
        446,
        599,
        592,
        326,
        361,
        339,
        797,
        104,
        465,
        283,
        814,
        280,
        726,
        56,
        345,
        276,
        772,
        745,
        654,
        702,
        761,
        640,
        251,
        384,
        794,
        583,
        486,
        815,
        837,
        194,
        979,
        232,
        682,
        896,
        801,
        994,
        257,
        211,
        61,
        883,
        991,
        164,
        989,
        324,
        66,
        68,
        724,
        997,
        69,
        916,
        575,
        550,
        674,
        614,
        555,
        770,
        880,
        441,
        714,
        29,
        92,
        664,
        611,
        223,
        95,
        736,
        341,
        362,
        455,
        390,
        347,
        950,
        158,
        222,
        144,
        67,
        516,
        855,
        427,
        460,
        998,
        539,
        103,
        491,
        309,
        475,
        789,
        832,
        835,
        249,
        64,
        159,
        631,
        711,
        79,
        757,
        613,
        219,
        477,
        306,
        557,
        645,
        690,
        331,
        105,
        938,
        138,
        578,
        959,
        147,
        782,
        999,
        19,
        665,
        647,
        179,
        496,
        481,
        606,
        438,
        160,
        668,
        311,
        262,
        490,
        759,
        288,
        316,
        961,
        337,
        8,
        313,
        524,
        119,
        526,
        850,
        525,
        239,
        766,
        267,
        343,
        37,
        90,
        247,
        367,
        710,
        398,
        431,
        100,
        813,
        108,
        382,
        899,
        986,
        290,
        246,
        791,
        679,
        972,
        65,
        375,
        184,
        715,
        360,
        186,
        983,
        731,
        18,
        673,
        709,
        139,
        751,
        287,
        140,
        440,
        245,
        676,
        996,
        404,
        569,
        101,
        74,
        594,
        236,
        498,
        439,
        809,
        205,
        694,
        207,
        678,
        38,
        293,
        581,
        708,
        162,
        698,
        509,
        373,
        712,
        683,
        419,
        589,
        573,
        988,
        303,
        929,
        564,
        396,
        511,
        32,
        547,
        738,
        26,
        9,
        374,
        799,
        218,
        548,
        386,
        342,
        833,
        940,
        216,
        935,
        411,
        142,
        549,
        733,
        76,
        388,
        128,
        463,
        915,
        351,
        656,
        911,
        52,
        254,
        978,
        860,
        931,
        422,
        154,
        237,
        976,
        975,
        71,
        454,
        284,
        981,
        890,
        849,
        787,
        111,
        450,
        848,
        391,
        904,
        376,
        45,
        124,
        141,
        608,
        582,
        130,
        957,
        696,
        214,
        126,
        320,
        399,
        566,
        225,
        895,
        593,
        113,
        457,
        740,
        500,
        55,
        876,
        865,
        878,
        358,
        765,
        286,
        634
    ],
    "Global Optimum": 0,
    "Algorithm": "Genetic algorithm",
    "Parameters": {
        "population": 30,
        "offspring": 30,
        "mutation probability": 0.001,
        "crossover probability": 0.9
    },
    "Fitness": 1371490,
    "Solution": [
        826,
        344,
        501,
        944,
        145,
        226,
        355,
        368,
        636,
        618,
        7,
        607,
        192,
        943,
        779,
        728,
        721,
        863,
        619,
        821,
        401,
        350,
        188,
        201,
        62,
        897,
        240,
        926,
        208,
        934,
        693,
        857,
        572,
        228,
        117,
        641,
        452,
        741,
        541,
        36,
        392,
        93,
        195,
        667,
        224,
        937,
        292,
        473,
        888,
        906,
        389,
        227,
        5,
        970,
        462,
        318,
        530,
        519,
        643,
        252,
        807,
        629,
        470,
        951,
        858,
        444,
        400,
        565,
        356,
        264,
        506,
        426,
        369,
        121,
        282,
        135,
        869,
        558,
        469,
        825,
        930,
        816,
        187,
        31,
        75,
        639,
        325,
        925,
        425,
        397,
        948,
        436,
        939,
        191,
        82,
        535,
        598,
        585,
        793,
        99,
        231,
        749,
        295,
        94,
        0,
        527,
        80,
        803,
        77,
        752,
        298,
        982,
        574,
        543,
        329,
        212,
        12,
        792,
        954,
        220,
        985,
        927,
        314,
        177,
        22,
        914,
        346,
        173,
        102,
        366,
        238,
        47,
        199,
        505,
        662,
        659,
        889,
        474,
        603,
        429,
        381,
        150,
        742,
        818,
        632,
        178,
        258,
        727,
        378,
        2,
        853,
        165,
        59,
        134,
        125,
        169,
        499,
        33,
        871,
        685,
        774,
        234,
        42,
        861,
        922,
        649,
        971,
        980,
        722,
        87,
        185,
        514,
        705,
        131,
        704,
        744,
        458,
        409,
        909,
        900,
        380,
        413,
        571,
        884,
        296,
        968,
        796,
        308,
        804,
        112,
        921,
        354,
        20,
        600,
        650,
        867,
        540,
        839,
        973,
        840,
        72,
        278,
        443,
        767,
        533,
        406,
        615,
        394,
        213,
        210,
        242,
        70,
        864,
        85,
        932,
        567,
        353,
        717,
        305,
        661,
        385,
        648,
        868,
        507,
        622,
        260,
        697,
        272,
        127,
        43,
        57,
        143,
        681,
        25,
        13,
        407,
        97,
        183,
        817,
        811,
        255,
        451,
        492,
        660,
        476,
        657,
        193,
        671,
        48,
        536,
        118,
        467,
        642,
        518,
        737,
        197,
        110,
        873,
        952,
        556,
        332,
        720,
        377,
        466,
        334,
        449,
        651,
        879,
        882,
        256,
        617,
        870,
        891,
        115,
        146,
        908,
        844,
        10,
        595,
        730,
        91,
        707,
        521,
        851,
        756,
        910,
        487,
        241,
        854,
        233,
        167,
        493,
        49,
        271,
        977,
        831,
        152,
        820,
        628,
        856,
        480,
        281,
        912,
        17,
        321,
        302,
        73,
        898,
        364,
        945,
        107,
        402,
        688,
        987,
        553,
        847,
        995,
        962,
        215,
        428,
        753,
        933,
        769,
        317,
        955,
        881,
        559,
        503,
        785,
        894,
        781,
        892,
        250,
        163,
        279,
        40,
        63,
        338,
        920,
        420,
        777,
        638,
        176,
        148,
        763,
        315,
        551,
        902,
        691,
        532,
        725,
        23,
        510,
        403,
        790,
        357,
        513,
        434,
        729,
        562,
        483,
        206,
        433,
        570,
        88,
        58,
        778,
        39,
        775,
        621,
        958,
        291,
        885,
        780,
        370,
        50,
        174,
        723,
        672,
        304,
        151,
        534,
        531,
        35,
        196,
        538,
        824,
        244,
        616,
        44,
        969,
        846,
        800,
        596,
        845,
        416,
        808,
        322,
        447,
        335,
        352,
        28,
        719,
        180,
        230,
        609,
        424,
        489,
        371,
        990,
        459,
        414,
        21,
        838,
        488,
        529,
        153,
        51,
        887,
        610,
        235,
        60,
        823,
        379,
        98,
        6,
        217,
        829,
        842,
        528,
        172,
        652,
        116,
        545,
        405,
        363,
        106,
        161,
        478,
        827,
        14,
        907,
        627,
        743,
        771,
        453,
        706,
        928,
        430,
        273,
        468,
        812,
        734,
        136,
        504,
        605,
        53,
        953,
        327,
        554,
        964,
        445,
        542,
        830,
        122,
        604,
        669,
        27,
        718,
        834,
        170,
        795,
        387,
        96,
        484,
        86,
        437,
        872,
        34,
        189,
        84,
        319,
        248,
        877,
        336,
        129,
        310,
        828,
        806,
        520,
        579,
        285,
        157,
        784,
        956,
        680,
        166,
        312,
        221,
        836,
        653,
        54,
        263,
        620,
        587,
        120,
        270,
        24,
        974,
        333,
        168,
        590,
        624,
        395,
        658,
        699,
        993,
        265,
        893,
        576,
        81,
        155,
        137,
        670,
        494,
        822,
        901,
        277,
        843,
        686,
        471,
        802,
        89,
        644,
        301,
        586,
        16,
        841,
        330,
        266,
        182,
        758,
        905,
        78,
        732,
        716,
        4,
        502,
        340,
        760,
        862,
        602,
        966,
        415,
        198,
        886,
        776,
        612,
        522,
        482,
        294,
        764,
        746,
        149,
        132,
        46,
        417,
        200,
        523,
        259,
        941,
        297,
        637,
        274,
        584,
        156,
        747,
        695,
        561,
        601,
        421,
        992,
        788,
        552,
        383,
        903,
        591,
        349,
        577,
        328,
        783,
        114,
        568,
        485,
        515,
        203,
        635,
        359,
        546,
        960,
        537,
        924,
        365,
        323,
        109,
        517,
        412,
        623,
        372,
        464,
        768,
        630,
        289,
        1,
        713,
        919,
        786,
        580,
        597,
        202,
        435,
        633,
        923,
        949,
        204,
        739,
        307,
        190,
        275,
        299,
        512,
        41,
        762,
        393,
        209,
        123,
        229,
        689,
        300,
        448,
        442,
        859,
        963,
        805,
        918,
        852,
        544,
        432,
        588,
        675,
        917,
        866,
        497,
        755,
        663,
        984,
        243,
        15,
        625,
        819,
        666,
        677,
        947,
        692,
        810,
        684,
        967,
        687,
        348,
        171,
        461,
        946,
        181,
        560,
        456,
        83,
        936,
        133,
        942,
        563,
        253,
        646,
        175,
        269,
        410,
        3,
        875,
        798,
        472,
        735,
        418,
        700,
        773,
        30,
        626,
        701,
        913,
        655,
        261,
        874,
        495,
        965,
        754,
        703,
        408,
        11,
        268,
        750,
        479,
        748,
        423,
        508,
        446,
        599,
        592,
        326,
        361,
        339,
        797,
        104,
        465,
        283,
        814,
        280,
        726,
        56,
        345,
        276,
        772,
        745,
        654,
        702,
        761,
        640,
        251,
        384,
        794,
        583,
        486,
        815,
        837,
        194,
        979,
        232,
        682,
        896,
        801,
        994,
        257,
        211,
        61,
        883,
        991,
        164,
        989,
        324,
        66,
        68,
        724,
        997,
        69,
        916,
        575,
        550,
        674,
        614,
        555,
        770,
        880,
        441,
        714,
        29,
        92,
        664,
        611,
        223,
        95,
        736,
        341,
        362,
        455,
        390,
        347,
        950,
        158,
        222,
        144,
        67,
        516,
        855,
        427,
        460,
        998,
        539,
        103,
        491,
        309,
        475,
        789,
        832,
        835,
        249,
        64,
        159,
        631,
        711,
        79,
        757,
        613,
        219,
        477,
        306,
        557,
        645,
        690,
        331,
        105,
        938,
        138,
        578,
        959,
        147,
        782,
        999,
        19,
        665,
        647,
        179,
        496,
        481,
        606,
        438,
        160,
        668,
        311,
        262,
        490,
        759,
        288,
        316,
        961,
        337,
        8,
        313,
        524,
        119,
        526,
        850,
        525,
        239,
        766,
        267,
        343,
        37,
        90,
        247,
        367,
        710,
        398,
        431,
        100,
        813,
        108,
        382,
        899,
        986,
        290,
        246,
        791,
        679,
        972,
        65,
        375,
        184,
        715,
        360,
        186,
        983,
        731,
        18,
        673,
        709,
        139,
        751,
        287,
        140,
        440,
        245,
        676,
        996,
        404,
        569,
        101,
        74,
        594,
        236,
        498,
        439,
        809,
        205,
        694,
        207,
        678,
        38,
        293,
        581,
        708,
        162,
        698,
        509,
        373,
        712,
        683,
        419,
        589,
        573,
        988,
        303,
        929,
        564,
        396,
        511,
        32,
        547,
        738,
        26,
        9,
        374,
        799,
        218,
        548,
        386,
        342,
        833,
        940,
        216,
        935,
        411,
        142,
        549,
        733,
        76,
        388,
        128,
        463,
        915,
        351,
        656,
        911,
        52,
        254,
        978,
        860,
        931,
        422,
        154,
        237,
        976,
        975,
        71,
        454,
        284,
        981,
        890,
        849,
        787,
        111,
        450,
        848,
        391,
        904,
        376,
        45,
        124,
        141,
        608,
        582,
        130,
        957,
        696,
        214,
        126,
        320,
        399,
        566,
        225,
        895,
        593,
        113,
        457,
        740,
        500,
        55,
        876,
        865,
        878,
        358,
        765,
        286,
        634
    ],
    "Nb of functions evaluations": 200010,
    "Computational time in seconds": 2995.989624977112,
    "Stopping criterion in evaluations": 200000
}